% seed = 0

mint = 37;
% maxt = 225;

nActs = 92;
dur = [0,2,1,3,2,2,2,2,3,3,1,2,3,2,4,2,3,2,2,5,3,4,3,2,2,5,3,2,1,4,2,2,2,2,5,2,2,1,3,2,3,3,3,3,3,2,2,2,1,1,4,1,3,2,3,3,4,5,1,4,1,3,2,1,3,1,3,2,2,2,1,2,4,3,3,4,1,2,2,4,2,2,4,2,4,2,3,4,1,1,3,0];

nSkills = 12;
sreq = [| 0,0,0,0,0,0,0,0,0,0,0,0,
	| 0,0,0,0,0,0,0,0,0,1,0,0,
	| 1,0,0,0,0,0,0,0,0,0,0,0,
	| 0,0,1,0,0,0,0,0,1,2,1,0,
	| 0,0,1,0,1,1,0,0,0,1,0,0,
	| 0,0,1,1,0,0,1,0,0,1,0,0,
	| 0,0,1,0,0,0,0,0,0,1,0,1,
	| 0,1,0,0,1,1,0,0,0,1,0,0,
	| 0,0,0,0,0,1,0,0,0,0,0,0,
	| 0,0,0,0,1,1,0,0,1,1,0,0,
	| 0,0,0,0,0,0,0,0,0,1,0,0,
	| 0,0,2,0,0,0,0,0,0,0,1,1,
	| 0,0,1,1,0,1,0,1,0,1,0,0,
	| 0,0,0,1,0,1,0,0,1,1,1,0,
	| 1,1,0,0,1,0,0,0,0,0,0,0,
	| 0,0,2,0,0,1,0,0,2,0,0,0,
	| 0,1,0,2,0,0,0,0,0,0,0,1,
	| 0,1,1,0,0,1,0,1,0,0,0,0,
	| 0,0,0,0,0,1,0,0,0,1,0,0,
	| 0,0,0,0,0,0,0,0,1,0,0,0,
	| 0,0,0,0,0,0,0,0,0,1,0,0,
	| 0,0,0,0,0,1,0,0,0,1,0,0,
	| 0,0,0,0,2,0,0,1,0,0,1,0,
	| 0,0,2,0,1,1,0,0,0,0,1,0,
	| 0,0,0,1,0,1,0,0,0,0,1,1,
	| 0,0,1,0,0,1,1,0,0,0,2,0,
	| 0,0,1,0,0,0,0,0,0,0,0,0,
	| 0,0,0,0,1,1,0,0,0,0,0,0,
	| 0,0,0,0,0,0,0,0,0,1,0,0,
	| 1,0,0,0,0,0,0,0,0,0,0,0,
	| 0,0,0,1,1,0,0,0,0,1,1,0,
	| 0,2,0,0,0,1,0,0,0,0,1,0,
	| 0,0,0,0,1,0,0,1,0,0,0,0,
	| 0,0,2,0,0,0,0,0,0,0,1,0,
	| 0,1,2,0,1,1,0,0,0,0,0,0,
	| 0,0,0,0,0,0,0,0,0,1,0,0,
	| 0,0,3,0,1,0,0,0,1,0,0,0,
	| 0,0,0,0,1,2,0,0,0,1,0,0,
	| 0,1,0,0,1,0,0,1,0,0,0,0,
	| 0,1,0,0,0,2,0,0,0,1,1,0,
	| 0,0,0,0,0,0,0,0,0,0,1,0,
	| 0,1,0,0,1,1,0,0,0,0,1,1,
	| 0,2,0,0,0,1,0,0,1,0,1,0,
	| 0,0,0,0,0,0,0,0,0,0,0,1,
	| 0,0,0,0,0,1,0,0,0,0,1,0,
	| 0,0,1,0,2,1,0,0,1,0,0,0,
	| 0,1,1,0,0,0,0,0,0,0,0,0,
	| 0,0,0,0,0,2,0,0,0,0,1,0,
	| 0,0,1,1,0,0,0,0,1,0,1,0,
	| 0,0,1,0,0,0,0,0,0,0,0,0,
	| 1,0,0,0,0,2,1,0,0,1,0,0,
	| 0,1,0,0,0,2,0,0,0,0,1,0,
	| 0,0,2,0,0,1,0,0,1,0,1,0,
	| 0,1,0,0,0,0,0,0,0,0,0,0,
	| 0,0,1,0,0,0,0,0,0,1,2,0,
	| 0,1,0,0,0,0,0,0,0,0,1,0,
	| 0,1,0,1,0,1,0,0,0,0,0,0,
	| 0,1,0,0,0,0,0,0,1,0,0,1,
	| 0,1,1,0,0,1,0,0,1,0,1,0,
	| 0,1,0,0,0,0,0,0,1,0,1,0,
	| 1,0,1,0,0,0,0,0,0,1,1,0,
	| 0,0,2,1,0,0,0,1,0,1,0,0,
	| 0,0,0,1,0,0,0,0,0,0,0,0,
	| 1,0,0,0,0,0,0,0,0,0,0,0,
	| 1,0,0,0,0,0,0,0,1,0,1,0,
	| 0,1,0,0,0,1,0,0,0,0,1,0,
	| 0,0,1,0,0,0,0,0,0,0,0,1,
	| 0,0,0,0,0,1,0,0,0,0,1,0,
	| 0,1,0,0,0,1,0,0,0,0,1,1,
	| 0,0,0,0,0,1,0,0,0,0,2,0,
	| 0,0,0,0,0,1,0,0,1,0,0,0,
	| 0,0,1,0,0,0,0,0,1,0,0,0,
	| 0,0,1,0,0,2,0,0,1,0,0,0,
	| 0,0,0,0,1,0,0,0,0,0,0,0,
	| 0,0,0,0,1,0,0,0,1,0,0,0,
	| 0,0,1,0,0,0,0,0,0,0,0,0,
	| 0,1,1,1,0,1,0,0,0,1,0,0,
	| 0,0,0,0,0,2,0,0,1,0,1,0,
	| 0,0,0,0,0,1,0,0,1,0,0,0,
	| 0,1,0,0,0,2,0,0,0,0,0,0,
	| 0,0,0,0,1,1,1,0,1,0,1,0,
	| 0,0,0,0,0,1,0,0,1,0,0,0,
	| 1,0,0,0,0,0,0,0,0,0,0,1,
	| 0,0,0,0,0,0,0,0,0,0,1,0,
	| 0,0,1,0,0,0,0,0,0,0,0,0,
	| 0,0,0,0,0,1,1,0,0,2,0,1,
	| 0,0,0,0,0,0,0,1,0,0,1,0,
	| 0,0,1,0,0,1,0,0,1,0,0,1,
	| 0,1,0,0,0,1,0,0,0,0,0,0,
	| 0,1,1,0,0,1,0,0,0,0,0,0,
	| 0,0,1,0,1,1,0,0,0,0,0,0,
	| 0,0,0,0,0,0,0,0,0,0,0,0, |];

% SumOfsreq = 271;

nResources = 17;
mastery = [| false,true,true,false,false,false,false,false,false,false,false,false,
	| false,false,false,false,false,false,true,true,true,false,false,false,
	| false,true,true,true,true,true,false,false,false,false,false,false,
	| true,true,true,false,false,false,false,false,false,false,false,false,
	| false,false,false,false,false,true,false,false,false,false,false,false,
	| false,false,true,false,false,false,false,false,false,false,false,false,
	| false,false,false,false,true,true,false,false,false,false,true,true,
	| false,false,false,false,false,false,false,false,true,false,false,false,
	| false,false,false,false,false,true,false,false,false,false,false,false,
	| false,false,false,true,true,true,false,false,false,false,false,false,
	| false,false,false,false,true,true,false,false,false,false,false,false,
	| false,false,false,false,false,false,false,false,false,true,true,true,
	| false,false,false,false,false,false,false,false,false,true,true,true,
	| false,false,false,false,false,false,false,false,false,false,false,true,
	| false,false,false,false,false,false,false,false,false,true,true,true,
	| false,true,true,false,false,false,false,false,false,false,false,true,
	| false,false,false,false,true,true,false,false,false,false,false,false, |];

nPrecs = 138;
pred = [1,1,1,2,2,2,3,3,3,4,4,4,5,5,5,6,7,7,7,8,8,8,9,9,10,10,11,11,11,12,12,13,14,14,14,15,15,15,16,17,17,18,18,19,19,20,20,20,21,22,23,23,24,24,25,25,26,27,28,29,30,31,31,31,32,33,33,34,34,35,36,36,37,38,39,39,40,41,41,42,43,43,44,45,46,47,48,48,49,50,51,52,53,53,54,54,55,56,57,58,59,60,60,61,62,63,64,65,66,67,68,69,70,70,71,72,73,74,75,76,76,77,78,79,79,80,81,82,83,84,85,86,86,87,88,89,90,91];
succ = [2,3,4,5,38,16,18,27,8,10,75,14,12,6,7,69,41,11,36,9,34,23,13,40,17,15,33,22,47,25,46,21,49,28,29,73,19,20,26,72,48,61,37,83,45,50,30,24,60,45,39,32,89,51,83,62,72,35,50,52,31,85,54,56,73,43,79,52,77,78,53,55,53,74,81,45,42,67,44,83,57,65,55,58,69,87,70,87,66,59,71,64,60,64,74,63,71,90,78,88,70,66,68,78,69,67,84,80,86,80,81,77,82,84,85,77,74,76,86,89,82,85,80,81,86,88,82,91,87,89,91,91,88,90,90,92,92,92];

nUnrels = 3229;
unpred = [2,2,2,2,2,2,2,2,2,2,2,2,2,2,2,2,2,2,2,2,2,2,2,2,2,2,2,2,2,2,2,2,2,2,2,2,2,2,2,2,3,3,3,3,3,3,3,3,3,3,3,3,3,3,3,3,3,3,3,3,3,3,3,3,3,3,3,3,3,3,3,3,3,3,3,3,3,3,3,3,3,3,3,3,3,3,3,3,4,4,4,4,4,4,4,4,4,4,4,4,4,4,4,4,4,4,4,4,4,4,4,4,4,4,4,4,4,4,4,4,4,4,4,4,4,4,4,4,4,4,4,5,5,5,5,5,5,5,5,5,5,5,5,5,5,5,5,5,5,5,5,5,5,5,5,5,5,5,5,5,5,5,5,5,5,5,5,5,5,5,5,5,5,5,5,6,6,6,6,6,6,6,6,6,6,6,6,6,6,6,6,6,6,6,6,6,6,6,6,6,6,6,6,6,6,6,6,6,6,6,6,6,6,6,6,6,6,6,6,6,6,6,6,6,6,6,6,6,6,6,6,6,6,6,6,6,6,6,6,6,6,6,6,6,6,6,6,6,6,6,6,6,6,6,6,6,7,7,7,7,7,7,7,7,7,7,7,7,7,7,7,7,7,7,7,7,7,7,7,7,7,7,7,7,7,7,7,7,7,7,7,7,7,7,7,7,7,7,7,7,7,7,7,7,7,7,7,8,8,8,8,8,8,8,8,8,8,8,8,8,8,8,8,8,8,8,8,8,8,8,8,8,8,8,8,8,8,8,8,8,8,8,8,8,8,8,8,8,8,8,8,8,8,8,8,8,8,8,8,9,9,9,9,9,9,9,9,9,9,9,9,9,9,9,9,9,9,9,9,9,9,9,9,9,9,9,9,9,9,9,9,9,9,9,9,9,9,9,9,9,9,9,9,9,9,9,9,9,9,9,9,9,9,9,9,9,9,9,9,9,9,9,9,9,9,9,10,10,10,10,10,10,10,10,10,10,10,10,10,10,10,10,10,10,10,10,10,10,10,10,10,10,10,10,10,10,10,10,10,10,10,10,10,10,10,10,10,10,10,10,10,10,10,11,11,11,11,11,11,11,11,11,11,11,11,11,11,11,11,11,11,11,11,11,11,11,11,11,11,11,11,11,11,11,11,11,11,11,11,11,11,11,11,11,11,11,11,11,11,11,11,11,11,11,11,11,11,11,11,11,11,11,11,11,11,12,12,12,12,12,12,12,12,12,12,12,12,12,12,12,12,12,12,12,12,12,12,12,12,12,12,12,12,12,12,12,12,12,12,12,12,12,12,12,12,12,12,12,12,12,12,12,12,12,12,12,12,12,12,12,12,12,12,12,12,12,12,12,12,12,12,12,12,12,13,13,13,13,13,13,13,13,13,13,13,13,13,13,13,13,13,13,13,13,13,13,13,13,13,13,13,13,13,13,13,13,13,13,13,13,13,13,13,13,13,13,13,13,13,13,13,13,13,13,13,13,13,13,13,13,13,13,13,13,13,13,13,13,13,13,13,13,14,14,14,14,14,14,14,14,14,14,14,14,14,14,14,14,14,14,14,14,14,14,14,14,14,14,14,14,14,14,14,14,14,14,14,14,14,14,14,14,14,14,14,14,14,14,14,14,14,14,14,14,14,14,14,14,14,14,14,14,14,15,15,15,15,15,15,15,15,15,15,15,15,15,15,15,15,15,15,15,15,15,15,15,15,15,15,15,15,15,15,15,15,15,15,15,15,15,15,15,15,15,15,15,15,15,15,15,16,16,16,16,16,16,16,16,16,16,16,16,16,16,16,16,16,16,16,16,16,16,16,16,16,16,16,16,16,16,16,16,16,16,16,16,16,16,16,16,16,16,16,16,16,16,16,16,16,16,16,16,16,16,16,16,16,16,16,16,16,16,16,16,16,16,16,16,16,16,17,17,17,17,17,17,17,17,17,17,17,17,17,17,17,17,17,17,17,17,17,17,17,17,17,17,17,17,17,17,17,17,17,17,17,17,17,17,17,17,17,17,17,17,17,17,17,17,17,17,17,17,17,17,17,17,17,17,17,17,17,17,17,18,18,18,18,18,18,18,18,18,18,18,18,18,18,18,18,18,18,18,18,18,18,18,18,18,18,18,18,18,18,18,18,18,18,18,18,18,18,18,18,18,18,18,18,18,18,18,18,18,18,18,18,18,18,18,18,19,19,19,19,19,19,19,19,19,19,19,19,19,19,19,19,19,19,19,19,19,19,19,19,19,19,19,19,19,19,19,19,19,19,19,19,19,19,19,19,19,19,19,19,19,19,19,19,19,19,19,19,19,19,19,19,19,19,19,19,19,19,19,19,19,19,20,20,20,20,20,20,20,20,20,20,20,20,20,20,20,20,20,20,20,20,20,20,20,20,20,20,20,20,20,20,20,20,20,20,20,20,20,20,20,20,20,20,20,20,20,20,20,20,20,21,21,21,21,21,21,21,21,21,21,21,21,21,21,21,21,21,21,21,21,21,21,21,21,21,21,21,21,21,21,21,21,21,21,21,21,21,21,21,21,21,21,21,21,21,21,21,21,21,21,21,21,21,21,21,21,21,21,21,21,21,22,22,22,22,22,22,22,22,22,22,22,22,22,22,22,22,22,22,22,22,22,22,22,22,22,22,22,22,22,22,22,22,22,22,22,22,22,22,22,22,22,22,22,22,22,22,22,22,22,22,22,22,22,22,22,22,22,22,22,22,22,22,22,22,22,23,23,23,23,23,23,23,23,23,23,23,23,23,23,23,23,23,23,23,23,23,23,23,23,23,23,23,23,23,23,23,23,23,23,23,23,23,23,23,23,23,23,23,23,23,23,23,23,23,23,23,23,23,23,23,24,24,24,24,24,24,24,24,24,24,24,24,24,24,24,24,24,24,24,24,24,24,24,24,24,24,24,24,24,24,24,24,24,24,24,24,24,24,24,24,24,24,24,24,24,24,24,24,24,24,24,24,24,24,24,24,24,24,24,24,24,24,25,25,25,25,25,25,25,25,25,25,25,25,25,25,25,25,25,25,25,25,25,25,25,25,25,25,25,25,25,25,25,25,25,25,25,25,25,25,25,25,25,25,25,25,25,25,25,25,25,25,25,25,25,25,25,25,25,25,26,26,26,26,26,26,26,26,26,26,26,26,26,26,26,26,26,26,26,26,26,26,26,26,26,26,26,26,26,26,26,26,26,26,26,26,26,26,26,26,26,26,26,26,26,26,26,26,26,26,26,26,26,26,26,26,26,26,26,26,26,27,27,27,27,27,27,27,27,27,27,27,27,27,27,27,27,27,27,27,27,27,27,27,27,27,27,27,27,27,27,27,27,27,27,27,27,27,27,27,27,27,27,27,27,27,27,27,27,27,27,27,27,27,27,27,27,27,27,27,28,28,28,28,28,28,28,28,28,28,28,28,28,28,28,28,28,28,28,28,28,28,28,28,28,28,28,28,28,28,28,28,28,28,28,28,28,28,28,28,28,28,28,28,28,28,28,28,28,28,28,28,28,28,28,28,29,29,29,29,29,29,29,29,29,29,29,29,29,29,29,29,29,29,29,29,29,29,29,29,29,29,29,29,29,29,29,29,29,29,29,29,29,29,29,29,29,29,29,29,29,29,29,29,29,29,29,29,29,29,29,29,29,29,30,30,30,30,30,30,30,30,30,30,30,30,30,30,30,30,30,30,30,30,30,30,30,30,30,30,30,30,30,30,30,30,30,30,30,30,30,30,30,30,30,30,30,30,30,30,30,31,31,31,31,31,31,31,31,31,31,31,31,31,31,31,31,31,31,31,31,31,31,31,31,31,31,31,31,31,31,31,31,31,31,31,31,31,31,31,31,31,31,31,31,31,31,31,32,32,32,32,32,32,32,32,32,32,32,32,32,32,32,32,32,32,32,32,32,32,32,32,32,32,32,32,32,32,32,32,32,32,32,32,32,32,32,32,32,32,32,32,32,32,32,32,32,32,32,32,32,33,33,33,33,33,33,33,33,33,33,33,33,33,33,33,33,33,33,33,33,33,33,33,33,33,33,33,33,33,33,33,33,33,33,33,33,33,33,33,33,33,33,33,33,33,33,34,34,34,34,34,34,34,34,34,34,34,34,34,34,34,34,34,34,34,34,34,34,34,34,34,34,34,34,34,34,34,34,34,34,34,34,34,34,34,34,34,34,34,34,34,34,34,34,34,34,35,35,35,35,35,35,35,35,35,35,35,35,35,35,35,35,35,35,35,35,35,35,35,35,35,35,35,35,35,35,35,35,35,35,35,35,35,35,35,35,35,35,35,35,35,35,35,35,35,35,35,35,36,36,36,36,36,36,36,36,36,36,36,36,36,36,36,36,36,36,36,36,36,36,36,36,36,36,36,36,36,36,36,36,36,36,36,36,36,36,36,37,37,37,37,37,37,37,37,37,37,37,37,37,37,37,37,37,37,37,37,37,37,37,37,37,37,37,37,37,37,37,37,37,37,37,37,37,37,37,37,37,38,38,38,38,38,38,38,38,38,38,38,38,38,38,38,38,38,38,38,38,38,38,38,38,38,38,38,38,38,38,38,38,38,38,38,38,38,38,38,38,38,38,38,38,38,38,38,38,39,39,39,39,39,39,39,39,39,39,39,39,39,39,39,39,39,39,39,39,39,39,39,39,39,39,39,39,39,39,39,39,39,39,39,39,39,39,39,39,39,39,39,39,39,40,40,40,40,40,40,40,40,40,40,40,40,40,40,40,40,40,40,40,40,40,40,40,40,40,40,40,40,40,40,40,40,40,40,40,40,40,40,40,40,40,40,40,40,40,40,40,41,41,41,41,41,41,41,41,41,41,41,41,41,41,41,41,41,41,41,41,41,41,41,41,41,41,41,41,41,41,41,41,41,41,41,41,41,41,41,41,41,42,42,42,42,42,42,42,42,42,42,42,42,42,42,42,42,42,42,42,42,42,42,42,42,42,42,42,42,42,42,42,42,42,42,42,42,42,42,42,42,42,42,42,42,42,42,43,43,43,43,43,43,43,43,43,43,43,43,43,43,43,43,43,43,43,43,43,43,43,43,43,43,43,43,43,43,43,43,43,43,43,43,43,43,43,43,43,43,44,44,44,44,44,44,44,44,44,44,44,44,44,44,44,44,44,44,44,44,44,44,44,44,44,44,44,44,44,44,44,44,44,44,44,44,44,44,44,44,44,44,44,45,45,45,45,45,45,45,45,45,45,45,45,45,45,45,45,45,45,45,45,45,45,45,45,45,45,45,45,45,45,45,45,45,45,45,45,45,45,45,45,45,45,45,46,46,46,46,46,46,46,46,46,46,46,46,46,46,46,46,46,46,46,46,46,46,46,46,46,46,46,46,46,46,46,46,46,46,46,46,46,46,46,46,46,47,47,47,47,47,47,47,47,47,47,47,47,47,47,47,47,47,47,47,47,47,47,47,47,47,47,47,47,47,47,47,47,47,47,47,47,47,47,47,47,47,47,48,48,48,48,48,48,48,48,48,48,48,48,48,48,48,48,48,48,48,48,48,48,48,48,48,48,48,48,48,48,48,48,48,48,48,48,49,49,49,49,49,49,49,49,49,49,49,49,49,49,49,49,49,49,49,49,49,49,49,49,49,49,49,49,49,49,49,49,49,49,49,49,49,50,50,50,50,50,50,50,50,50,50,50,50,50,50,50,50,50,50,50,50,50,50,50,50,50,50,50,50,50,50,50,50,50,50,50,51,51,51,51,51,51,51,51,51,51,51,51,51,51,51,51,51,51,51,51,51,51,51,51,51,51,51,51,51,51,51,51,51,51,51,51,51,52,52,52,52,52,52,52,52,52,52,52,52,52,52,52,52,52,52,52,52,52,52,52,52,52,52,52,52,52,52,52,52,52,52,52,52,53,53,53,53,53,53,53,53,53,53,53,53,53,53,53,53,53,53,53,53,53,53,53,53,53,53,54,54,54,54,54,54,54,54,54,54,54,54,54,54,54,54,54,54,54,54,54,54,54,54,54,54,54,55,55,55,55,55,55,55,55,55,55,55,55,55,55,55,55,55,55,55,55,55,55,55,55,55,55,55,55,55,55,55,55,55,56,56,56,56,56,56,56,56,56,56,56,56,56,56,56,56,56,56,56,56,56,56,56,56,56,56,56,56,56,56,56,56,56,56,57,57,57,57,57,57,57,57,57,57,57,57,57,57,57,57,57,57,57,57,57,57,57,57,57,57,57,57,57,57,58,58,58,58,58,58,58,58,58,58,58,58,58,58,58,58,58,58,58,58,58,58,58,58,58,58,58,58,58,58,58,59,59,59,59,59,59,59,59,59,59,59,59,59,59,59,59,59,59,59,59,59,59,59,59,59,59,59,60,60,60,60,60,60,60,60,60,60,60,60,60,60,60,60,60,60,60,60,60,60,60,61,61,61,61,61,61,61,61,61,61,61,61,61,61,61,61,61,61,61,61,61,61,61,61,61,61,62,62,62,62,62,62,62,62,62,62,62,62,62,62,62,62,62,62,62,62,62,62,62,62,62,63,63,63,63,63,63,63,63,63,63,63,63,63,63,63,63,63,63,63,63,63,63,63,63,64,64,64,64,64,64,64,64,64,64,64,64,64,64,64,64,64,64,64,64,64,64,64,64,64,65,65,65,65,65,65,65,65,65,65,65,65,65,65,65,65,65,65,65,65,65,65,65,66,66,66,66,66,66,66,66,66,66,66,66,66,66,66,66,66,66,66,66,66,67,67,67,67,67,67,67,67,67,67,67,67,67,67,67,67,67,67,67,67,67,68,68,68,68,68,68,68,68,68,68,68,68,68,68,68,68,68,68,68,68,69,69,69,69,69,69,69,69,69,69,69,69,69,69,69,69,69,69,69,70,70,70,70,70,70,70,70,70,70,70,70,70,70,70,70,70,71,71,71,71,71,71,71,71,71,71,71,71,71,71,71,71,71,71,72,72,72,72,72,72,72,72,72,72,72,72,72,72,72,72,73,73,73,73,73,73,73,73,73,73,73,73,73,74,74,74,74,74,74,74,74,74,74,74,74,74,75,75,75,75,75,75,75,75,75,75,75,75,76,76,76,76,76,76,76,76,76,76,76,76,77,77,77,77,77,77,77,77,77,77,77,77,78,78,78,78,78,78,78,78,78,78,79,79,79,79,79,79,80,80,80,80,80,80,80,80,80,81,81,81,81,81,81,81,81,82,82,82,82,82,82,82,82,83,83,83,83,83,83,84,84,84,84,84,84,85,85,85,85,85,86,86,87,87,87,88,88,89,89,90];
unsucc = [3,4,8,9,10,13,14,15,17,18,19,20,21,23,24,27,28,29,30,31,32,34,35,37,39,40,42,48,49,50,51,52,54,56,59,61,63,70,73,75,4,5,6,7,10,11,12,14,15,16,17,19,20,22,24,25,26,28,29,30,31,33,36,38,41,43,44,46,47,48,49,50,51,54,55,56,57,59,62,63,65,67,69,70,71,72,75,79,5,6,7,8,9,11,12,13,16,18,21,22,23,25,26,27,32,33,34,35,36,37,38,39,40,41,42,43,44,46,47,53,55,57,60,61,62,65,68,69,78,79,81,8,9,10,13,14,15,16,17,18,19,20,21,23,24,26,27,28,29,30,31,32,34,35,37,38,39,40,42,48,49,50,51,52,54,56,59,61,63,70,72,73,74,75,76,7,8,9,10,11,12,13,14,15,16,17,18,19,20,21,22,23,24,25,26,27,28,29,30,31,32,33,34,35,36,37,38,39,40,41,42,43,44,45,46,47,48,49,50,51,52,53,54,55,56,57,58,59,60,61,62,63,64,65,66,67,68,70,71,72,73,74,75,76,78,79,80,81,82,83,84,86,87,88,89,90,8,9,10,12,13,14,15,16,17,18,19,20,21,23,24,25,26,27,28,29,30,31,32,34,35,37,38,39,40,42,46,48,49,50,51,52,54,56,59,61,62,63,69,70,72,73,74,75,76,77,83,10,11,12,14,15,16,17,18,19,20,22,24,25,26,27,28,29,30,31,33,35,36,37,38,41,43,44,46,47,48,49,50,51,53,54,55,56,57,59,61,62,63,65,67,69,70,71,72,75,78,79,80,10,11,12,14,15,16,17,18,19,20,22,23,24,25,26,27,28,29,30,31,32,33,34,35,36,37,38,39,41,43,44,45,46,47,48,49,50,51,52,53,54,55,56,57,58,59,61,62,63,64,65,67,69,70,71,72,73,74,75,76,77,78,79,80,84,85,89,11,12,13,14,16,18,21,22,23,25,26,27,28,29,32,33,34,35,36,37,38,39,40,41,42,43,44,46,47,49,52,53,55,57,60,61,62,64,65,66,68,69,75,78,79,81,86,12,13,14,15,16,17,18,19,20,21,23,24,25,26,27,28,29,30,31,32,34,35,36,37,38,39,40,41,42,44,46,48,49,50,51,52,53,54,55,56,59,60,61,62,63,64,66,67,68,69,70,71,72,73,74,75,76,77,83,84,85,89,13,14,15,16,17,18,19,20,21,22,23,24,26,27,28,29,30,31,32,33,34,35,36,37,38,39,40,41,42,43,44,45,47,48,49,50,51,52,53,54,55,56,57,58,59,60,61,63,64,65,66,67,68,70,71,72,73,74,75,76,78,79,80,81,82,84,86,88,89,14,15,16,17,18,19,20,22,23,24,25,26,27,28,29,30,31,32,33,34,35,36,37,38,39,40,41,42,43,44,45,46,47,48,49,50,51,52,53,54,55,56,57,58,59,61,62,63,64,65,67,69,70,71,72,73,74,75,76,77,78,79,80,83,84,85,87,89,15,16,17,18,19,20,21,22,23,24,25,26,27,30,31,32,33,34,35,36,37,38,39,40,41,42,43,44,45,46,47,48,51,53,54,55,56,57,58,60,61,62,63,65,67,68,69,71,72,73,74,75,76,77,78,79,80,81,83,85,87,16,17,18,21,22,23,25,26,27,28,29,32,33,34,35,36,37,38,39,40,41,42,43,44,46,47,48,49,52,53,55,57,60,61,62,64,65,66,68,69,72,75,77,78,79,81,86,17,18,19,20,21,22,23,24,25,27,28,29,30,31,32,33,34,35,36,37,38,39,40,41,42,43,44,45,46,47,48,49,50,51,52,53,54,55,56,57,58,59,60,61,62,63,64,65,66,67,68,69,70,71,73,74,75,76,78,79,80,81,82,83,84,86,87,88,89,90,18,19,20,21,22,23,24,25,26,27,28,29,30,31,32,33,34,35,36,37,38,39,40,41,42,43,44,45,46,47,49,50,51,52,53,54,55,56,57,58,59,60,61,62,63,64,65,66,67,68,69,71,73,74,75,76,78,79,80,81,83,86,88,19,20,21,22,23,24,25,26,27,28,29,30,31,32,33,34,35,36,38,39,40,41,42,43,44,45,46,47,48,49,50,51,52,54,55,56,57,58,59,62,63,65,67,69,70,71,72,73,74,75,76,77,79,83,85,87,20,21,22,23,24,25,26,27,28,29,30,31,32,33,34,35,36,37,38,39,40,41,42,43,44,46,47,48,49,50,51,52,53,54,55,56,57,59,60,61,62,63,64,65,66,67,68,69,70,71,72,73,74,75,76,77,78,79,80,81,82,84,85,86,89,91,21,22,23,25,26,27,28,29,32,33,34,35,36,37,38,39,40,41,42,43,44,45,46,47,48,49,52,53,55,57,58,60,61,62,64,65,66,68,69,72,73,75,77,78,79,81,83,86,87,22,23,24,25,26,27,28,29,30,31,32,33,34,35,36,37,38,39,40,41,42,43,44,45,46,47,48,49,50,51,52,53,54,55,56,57,58,59,61,62,63,64,65,67,69,70,71,72,73,74,75,76,77,78,79,80,83,84,85,87,89,23,24,25,26,27,28,29,30,31,32,33,34,35,36,37,38,39,40,41,42,43,44,46,47,48,49,50,51,52,53,54,55,56,57,59,60,61,62,63,64,65,66,67,68,69,70,71,72,73,74,75,76,77,78,79,80,81,82,83,84,85,86,87,89,91,24,25,26,27,28,29,30,31,33,34,35,36,37,38,40,41,42,43,44,46,47,48,49,50,51,52,53,54,55,56,57,59,60,61,62,63,64,65,66,67,68,69,70,71,72,75,77,78,79,80,83,84,85,86,87,25,26,27,28,29,30,31,32,33,34,35,36,37,38,39,40,41,42,43,44,45,46,47,48,49,50,52,53,54,55,56,57,58,59,60,61,62,63,64,65,66,67,68,69,70,72,73,74,75,76,77,78,79,80,81,82,83,84,86,87,88,90,26,27,28,29,30,31,32,33,34,35,36,37,38,39,40,41,42,43,44,45,46,47,48,49,50,51,52,53,54,55,56,57,58,59,60,61,63,64,65,66,67,68,70,71,72,73,74,75,76,78,79,80,81,82,84,86,88,89,27,28,29,30,31,32,33,34,35,36,37,38,39,40,41,42,43,44,45,46,47,48,49,50,51,52,53,54,55,56,57,58,59,60,61,62,63,64,65,66,67,68,69,70,71,73,74,75,76,78,79,80,81,82,83,84,86,87,88,89,90,28,29,30,31,32,33,34,36,37,38,39,40,41,42,43,44,45,46,47,48,49,50,51,52,53,54,55,56,57,58,59,60,61,62,63,64,65,66,67,68,69,70,71,72,73,74,75,76,77,79,81,82,83,84,85,86,87,89,91,29,30,31,32,33,34,35,36,37,38,39,40,41,42,43,44,45,46,47,48,49,51,52,53,54,55,56,57,58,60,61,62,63,64,65,66,67,68,69,71,72,73,74,75,76,77,78,79,80,81,83,85,86,87,88,90,30,31,32,33,34,35,36,37,38,39,40,41,42,43,44,45,46,47,48,49,50,51,53,54,55,56,57,58,59,60,61,62,63,65,66,67,68,69,70,71,72,73,74,75,76,77,78,79,80,81,82,83,85,86,87,88,90,91,32,33,34,35,36,37,38,39,40,41,42,43,44,45,46,47,48,49,50,51,52,53,55,57,58,59,60,61,62,64,65,66,68,69,70,71,72,73,75,77,78,79,81,83,84,86,87,32,33,34,35,36,37,38,39,40,41,42,43,44,45,46,47,48,49,50,51,52,53,55,57,58,59,60,61,62,64,65,66,68,69,70,71,72,73,75,77,78,79,81,83,84,86,87,33,34,35,36,37,38,39,40,41,42,43,44,45,46,47,48,49,50,51,52,53,54,55,56,57,58,59,60,61,62,63,64,65,66,67,68,69,70,71,72,75,77,78,79,80,81,83,84,85,86,87,88,90,34,35,36,37,38,39,40,41,42,44,45,46,47,48,49,50,51,52,53,54,55,56,58,59,60,61,62,63,64,66,67,68,69,70,71,72,73,74,75,76,77,83,84,85,87,89,35,36,37,38,39,40,41,42,43,44,45,46,47,48,49,50,51,53,54,55,56,57,58,59,60,61,62,63,65,66,67,68,69,70,71,72,73,74,75,76,78,79,80,81,82,83,86,87,88,90,36,37,38,39,40,41,42,43,44,45,46,47,48,49,50,51,52,53,54,55,56,57,58,59,60,61,62,63,64,65,66,67,68,69,70,71,72,73,74,75,76,77,79,81,82,83,84,85,86,87,89,91,37,38,39,40,41,42,43,44,45,46,47,48,49,50,51,52,54,56,57,58,59,61,62,63,65,67,69,70,72,73,74,75,76,77,78,79,80,83,87,38,39,40,41,42,43,44,45,46,47,48,49,50,51,52,54,55,56,57,58,59,61,62,63,65,67,69,70,71,72,73,74,75,76,77,78,79,80,83,85,87,39,40,41,42,43,44,45,46,47,48,49,50,51,52,53,54,55,56,57,58,59,60,61,62,63,64,65,66,67,68,69,70,71,72,73,75,77,78,79,80,81,83,84,85,86,87,88,90,40,41,42,43,44,46,47,48,49,50,51,52,53,54,55,56,57,59,60,61,62,63,64,65,66,67,68,69,70,71,72,73,74,75,76,77,78,79,80,83,84,85,86,87,89,41,43,44,45,46,47,48,49,50,51,52,53,54,55,56,57,58,59,60,61,62,63,64,65,66,67,68,69,70,71,72,73,74,75,76,77,78,79,80,81,82,84,85,86,88,89,91,42,43,45,46,47,48,49,50,51,52,53,54,56,57,58,59,60,61,62,63,64,65,66,68,69,70,72,73,74,75,76,77,78,79,81,82,83,84,86,87,89,43,44,45,46,47,48,49,50,51,52,53,54,55,56,57,58,59,60,61,62,63,64,65,66,67,68,69,70,71,72,73,74,75,76,77,78,79,80,81,82,84,85,86,88,89,91,44,45,46,47,48,49,50,51,52,53,54,55,56,58,59,60,61,62,63,64,66,67,68,69,70,71,72,73,74,75,76,77,79,81,82,83,84,85,86,87,89,91,45,46,47,48,49,50,51,52,53,54,56,57,58,59,60,61,62,63,64,65,66,67,68,69,70,72,73,74,75,76,77,78,79,80,81,82,83,84,86,87,88,89,90,46,47,48,49,50,51,52,53,54,55,56,57,59,60,61,62,63,64,65,66,67,68,69,70,71,72,73,74,75,76,77,78,79,80,81,82,83,84,85,86,87,89,91,47,48,49,50,51,52,53,54,55,56,57,58,59,60,61,62,63,64,65,66,67,68,70,71,72,73,74,75,76,78,79,80,81,82,83,84,86,87,88,89,90,48,49,50,51,52,53,54,55,56,57,58,59,60,61,62,63,64,65,66,67,68,69,70,71,72,73,74,75,76,77,78,79,80,81,82,83,84,85,86,88,89,91,49,50,51,52,53,54,55,56,57,58,59,60,61,62,63,64,65,66,67,68,69,71,72,73,74,75,76,77,78,79,80,81,83,85,86,88,50,51,52,53,54,55,56,57,58,59,60,61,62,63,64,65,67,68,69,70,71,72,73,74,75,76,77,78,79,80,81,82,83,84,85,87,89,51,52,53,54,55,56,57,58,60,61,62,63,64,65,66,67,68,69,71,72,73,74,75,76,77,78,79,80,81,83,85,86,87,88,90,52,53,54,55,56,57,58,59,60,61,62,63,64,65,66,67,68,69,70,72,73,74,75,76,77,78,79,80,81,82,83,84,86,87,88,89,90,53,54,55,56,57,58,59,60,61,62,63,65,66,67,68,69,70,71,72,73,74,75,76,77,78,79,80,81,82,83,85,86,87,88,90,91,54,55,56,57,58,59,61,62,63,65,67,69,70,71,72,73,74,75,76,77,78,79,80,83,85,87,55,56,57,58,59,60,61,62,64,65,66,68,69,70,71,72,73,75,77,78,79,81,83,84,85,86,87,56,57,58,59,60,61,62,63,64,65,66,67,68,69,70,72,73,74,75,76,77,78,79,80,81,82,83,84,86,87,88,89,90,57,58,59,60,61,62,63,64,65,66,67,68,69,70,71,72,73,74,75,76,77,78,79,80,81,82,83,84,85,86,87,88,89,91,58,59,60,61,62,63,64,65,66,67,68,69,70,71,72,73,74,75,76,77,79,81,82,83,84,85,86,87,89,91,59,60,61,62,63,64,65,66,67,68,69,70,71,72,73,74,75,76,77,78,79,80,81,82,83,84,85,86,87,89,91,60,61,62,63,64,65,66,67,68,69,71,72,73,74,75,76,77,78,79,80,81,83,85,86,87,88,90,61,62,63,64,65,67,69,70,71,72,73,74,75,76,77,78,79,80,83,84,85,87,89,62,63,64,65,66,67,68,69,70,71,72,73,74,75,76,77,79,81,82,83,84,85,86,87,89,91,63,64,65,66,67,68,70,71,72,73,74,75,76,78,79,80,81,82,83,84,86,87,88,89,90,64,65,66,68,69,70,71,72,73,74,75,76,77,78,79,81,82,83,84,85,86,87,89,91,65,66,67,68,69,70,71,72,73,74,75,76,77,78,79,80,81,82,83,85,86,87,88,90,91,66,67,68,69,70,71,72,73,74,75,76,77,78,79,81,82,83,84,85,86,87,89,91,67,68,69,70,71,72,73,74,75,76,77,78,79,80,81,82,83,84,85,87,89,68,69,70,71,72,73,74,75,76,77,78,79,81,82,83,84,85,86,87,89,91,69,70,71,72,73,74,75,76,77,78,79,80,83,84,85,86,87,88,89,90,70,71,72,73,74,75,76,78,79,80,81,82,83,84,86,87,88,89,90,71,72,73,74,75,76,77,78,79,80,81,83,85,86,87,88,90,72,73,74,75,76,77,78,79,80,81,82,83,84,86,87,88,89,90,73,74,75,76,78,79,80,81,82,83,84,86,87,88,89,90,75,77,78,79,80,81,83,84,85,86,87,88,90,75,77,78,79,80,81,83,84,85,86,87,88,90,76,77,78,79,80,81,82,83,84,85,87,89,77,78,79,80,81,83,84,85,86,87,88,90,78,79,80,81,82,83,84,86,87,88,89,90,79,81,82,83,84,85,86,87,89,91,80,83,84,85,87,89,81,82,83,84,85,86,87,89,91,83,84,85,86,87,88,89,90,83,84,85,86,87,88,89,90,84,85,86,88,89,91,85,86,87,88,90,91,86,87,88,89,90,87,89,88,89,91,89,91,90,91,91];

USEFUL_RES = [{},
	{12,13,15},
	{4},
	{1,2,3,4,6,7,8,12,13,15,16},
	{1,3,4,5,6,7,9,10,11,12,13,15,16,17},
	{1,2,3,4,6,10,12,13,15,16},
	{1,3,4,6,7,12,13,14,15,16},
	{1,3,4,5,7,9,10,11,12,13,15,16,17},
	{3,5,7,9,10,11,17},
	{2,3,5,7,8,9,10,11,12,13,15,17},
	{12,13,15},
	{1,3,4,6,7,12,13,14,15,16},
	{1,2,3,4,5,6,7,9,10,11,12,13,15,16,17},
	{2,3,5,7,8,9,10,11,12,13,15,17},
	{1,3,4,7,10,11,16,17},
	{1,2,3,4,5,6,7,8,9,10,11,16,17},
	{1,3,4,7,10,12,13,14,15,16},
	{1,2,3,4,5,6,7,9,10,11,16,17},
	{3,5,7,9,10,11,12,13,15,17},
	{2,8},
	{12,13,15},
	{3,5,7,9,10,11,12,13,15,17},
	{2,3,7,10,11,12,13,15,17},
	{1,3,4,5,6,7,9,10,11,12,13,15,16,17},
	{3,5,7,9,10,11,12,13,14,15,16,17},
	{1,2,3,4,5,6,7,9,10,11,12,13,15,16,17},
	{1,3,4,6,16},
	{3,5,7,9,10,11,17},
	{12,13,15},
	{4},
	{3,7,10,11,12,13,15,17},
	{1,3,4,5,7,9,10,11,12,13,15,16,17},
	{2,3,7,10,11,17},
	{1,3,4,6,7,12,13,15,16},
	{1,3,4,5,6,7,9,10,11,16,17},
	{12,13,15},
	{1,2,3,4,6,7,8,10,11,16,17},
	{3,5,7,9,10,11,12,13,15,17},
	{1,2,3,4,7,10,11,16,17},
	{1,3,4,5,7,9,10,11,12,13,15,16,17},
	{7,12,13,15},
	{1,3,4,5,7,9,10,11,12,13,14,15,16,17},
	{1,2,3,4,5,7,8,9,10,11,12,13,15,16,17},
	{7,12,13,14,15,16},
	{3,5,7,9,10,11,12,13,15,17},
	{1,2,3,4,5,6,7,8,9,10,11,16,17},
	{1,3,4,6,16},
	{3,5,7,9,10,11,12,13,15,17},
	{1,2,3,4,6,7,8,10,12,13,15,16},
	{1,3,4,6,16},
	{2,3,4,5,7,9,10,11,12,13,15,17},
	{1,3,4,5,7,9,10,11,12,13,15,16,17},
	{1,2,3,4,5,6,7,8,9,10,11,12,13,15,16,17},
	{1,3,4,16},
	{1,3,4,6,7,12,13,15,16},
	{1,3,4,7,12,13,15,16},
	{1,3,4,5,7,9,10,11,16,17},
	{1,2,3,4,7,8,12,13,14,15,16},
	{1,2,3,4,5,6,7,8,9,10,11,12,13,15,16,17},
	{1,2,3,4,7,8,12,13,15,16},
	{1,3,4,6,7,12,13,15,16},
	{1,2,3,4,6,10,12,13,15,16},
	{3,10},
	{4},
	{2,4,7,8,12,13,15},
	{1,3,4,5,7,9,10,11,12,13,15,16,17},
	{1,3,4,6,7,12,13,14,15,16},
	{3,5,7,9,10,11,12,13,15,17},
	{1,3,4,5,7,9,10,11,12,13,14,15,16,17},
	{3,5,7,9,10,11,12,13,15,17},
	{2,3,5,7,8,9,10,11,17},
	{1,2,3,4,6,8,16},
	{1,2,3,4,5,6,7,8,9,10,11,16,17},
	{3,7,10,11,17},
	{2,3,7,8,10,11,17},
	{1,3,4,6,16},
	{1,3,4,5,6,7,9,10,11,12,13,15,16,17},
	{2,3,5,7,8,9,10,11,12,13,15,17},
	{2,3,5,7,8,9,10,11,17},
	{1,3,4,5,7,9,10,11,16,17},
	{2,3,5,7,8,9,10,11,12,13,15,17},
	{2,3,5,7,8,9,10,11,17},
	{4,7,12,13,14,15,16},
	{7,12,13,15},
	{1,3,4,6,16},
	{2,3,5,7,9,10,11,12,13,14,15,16,17},
	{2,7,12,13,15},
	{1,2,3,4,5,6,7,8,9,10,11,12,13,14,15,16,17},
	{1,3,4,5,7,9,10,11,16,17},
	{1,3,4,5,6,7,9,10,11,16,17},
	{1,3,4,5,6,7,9,10,11,16,17},
	{}];

POTENTIAL_ACT = [{4,5,6,7,8,12,13,15,16,17,18,24,26,27,32,34,35,37,39,40,42,43,46,47,49,50,52,53,54,55,56,57,58,59,60,61,62,66,67,69,72,73,76,77,80,85,88,89,90,91},
	{4,6,10,13,14,16,18,20,23,26,33,37,39,43,46,49,51,53,58,59,60,62,65,71,72,73,75,78,79,81,82,86,87,88},
	{4,5,6,7,8,9,10,12,13,14,15,16,17,18,19,22,23,24,25,26,27,28,31,32,33,34,35,37,38,39,40,42,43,45,46,47,48,49,50,51,52,53,54,55,56,57,58,59,60,61,62,63,66,67,68,69,70,71,72,73,74,75,76,77,78,79,80,81,82,85,86,88,89,90,91},
	{3,4,5,6,7,8,12,13,15,16,17,18,24,26,27,30,32,34,35,37,39,40,42,43,46,47,49,50,51,52,53,54,55,56,57,58,59,60,61,62,64,65,66,67,69,72,73,76,77,80,83,85,88,89,90,91},
	{5,8,9,10,13,14,16,18,19,22,24,25,26,28,32,35,38,40,42,43,45,46,48,51,52,53,57,59,66,68,69,70,71,73,77,78,79,80,81,82,86,88,89,90,91},
	{4,5,6,7,12,13,16,18,24,26,27,34,35,37,46,47,49,50,53,55,59,61,62,67,72,73,76,77,85,88,90,91},
	{4,5,7,8,9,10,12,13,14,15,16,17,18,19,22,23,24,25,26,28,31,32,33,34,35,37,38,39,40,41,42,43,44,45,46,48,49,51,52,53,55,56,57,58,59,60,61,65,66,67,68,69,70,71,73,74,75,77,78,79,80,81,82,83,84,86,87,88,89,90,91},
	{4,10,14,16,20,37,43,46,49,53,58,59,60,65,71,72,73,75,78,79,81,82,88},
	{5,8,9,10,13,14,16,18,19,22,24,25,26,28,32,35,38,40,42,43,45,46,48,51,52,53,57,59,66,68,69,70,71,73,77,78,79,80,81,82,86,88,89,90,91},
	{5,6,8,9,10,13,14,15,16,17,18,19,22,23,24,25,26,28,31,32,33,35,37,38,39,40,42,43,45,46,48,49,51,52,53,57,59,62,63,66,68,69,70,71,73,74,75,77,78,79,80,81,82,86,88,89,90,91},
	{5,8,9,10,13,14,15,16,18,19,22,23,24,25,26,28,31,32,33,35,37,38,39,40,42,43,45,46,48,51,52,53,57,59,66,68,69,70,71,73,74,75,77,78,79,80,81,82,86,88,89,90,91},
	{2,4,5,6,7,8,10,11,12,13,14,17,19,21,22,23,24,25,26,29,31,32,34,36,38,40,41,42,43,44,45,48,49,51,52,53,55,56,58,59,60,61,62,65,66,67,68,69,70,77,78,81,83,84,86,87,88},
	{2,4,5,6,7,8,10,11,12,13,14,17,19,21,22,23,24,25,26,29,31,32,34,36,38,40,41,42,43,44,45,48,49,51,52,53,55,56,58,59,60,61,62,65,66,67,68,69,70,77,78,81,83,84,86,87,88},
	{7,12,17,25,42,44,58,67,69,83,86,88},
	{2,4,5,6,7,8,10,11,12,13,14,17,19,21,22,23,24,25,26,29,31,32,34,36,38,40,41,42,43,44,45,48,49,51,52,53,55,56,58,59,60,61,62,65,66,67,68,69,70,77,78,81,83,84,86,87,88},
	{4,5,6,7,8,12,13,15,16,17,18,24,25,26,27,32,34,35,37,39,40,42,43,44,46,47,49,50,52,53,54,55,56,57,58,59,60,61,62,66,67,69,72,73,76,77,80,83,85,86,88,89,90,91},
	{5,8,9,10,13,14,15,16,18,19,22,23,24,25,26,28,31,32,33,35,37,38,39,40,42,43,45,46,48,51,52,53,57,59,66,68,69,70,71,73,74,75,77,78,79,80,81,82,86,88,89,90,91}];
